\ Model team10_1
\ LP format - for model browsing. Use MPS format to capture full model detail.
Minimize
  w[0,0,0] + w[0,0,1] + w[0,0,2] + w[0,0,3] + w[0,0,4] + w[0,0,5] + w[0,0,6]
   + w[0,1,0] + w[0,1,1] + w[0,1,2] + w[0,1,3] + w[0,1,4] + w[0,1,5]
   + w[0,1,6] + w[0,2,0] + w[0,2,1] + w[0,2,2] + w[0,2,3] + w[0,2,4]
   + w[0,2,5] + w[0,2,6] + w[0,3,0] + w[0,3,1] + w[0,3,2] + w[0,3,3]
   + w[0,3,4] + w[0,3,5] + w[0,3,6] + w[0,4,0] + w[0,4,1] + w[0,4,2]
   + w[0,4,3] + w[0,4,4] + w[0,4,5] + w[0,4,6] + w[0,5,0] + w[0,5,1]
   + w[0,5,2] + w[0,5,3] + w[0,5,4] + w[0,5,5] + w[0,5,6] + w[0,6,0]
   + w[0,6,1] + w[0,6,2] + w[0,6,3] + w[0,6,4] + w[0,6,5] + w[0,6,6]
   + w[0,7,0] + w[0,7,1] + w[0,7,2] + w[0,7,3] + w[0,7,4] + w[0,7,5]
   + w[0,7,6] + w[0,8,0] + w[0,8,1] + w[0,8,2] + w[0,8,3] + w[0,8,4]
   + w[0,8,5] + w[0,8,6] + w[1,0,0] + w[1,0,1] + w[1,0,2] + w[1,0,3]
   + w[1,0,4] + w[1,0,5] + w[1,0,6] + w[1,1,0] + w[1,1,1] + w[1,1,2]
   + w[1,1,3] + w[1,1,4] + w[1,1,5] + w[1,1,6] + w[1,2,0] + w[1,2,1]
   + w[1,2,2] + w[1,2,3] + w[1,2,4] + w[1,2,5] + w[1,2,6] + w[1,3,0]
   + w[1,3,1] + w[1,3,2] + w[1,3,3] + w[1,3,4] + w[1,3,5] + w[1,3,6]
   + w[1,4,0] + w[1,4,1] + w[1,4,2] + w[1,4,3] + w[1,4,4] + w[1,4,5]
   + w[1,4,6] + w[1,5,0] + w[1,5,1] + w[1,5,2] + w[1,5,3] + w[1,5,4]
   + w[1,5,5] + w[1,5,6] + w[1,6,0] + w[1,6,1] + w[1,6,2] + w[1,6,3]
   + w[1,6,4] + w[1,6,5] + w[1,6,6] + w[1,7,0] + w[1,7,1] + w[1,7,2]
   + w[1,7,3] + w[1,7,4] + w[1,7,5] + w[1,7,6] + w[1,8,0] + w[1,8,1]
   + w[1,8,2] + w[1,8,3] + w[1,8,4] + w[1,8,5] + w[1,8,6] + w[2,0,0]
   + w[2,0,1] + w[2,0,2] + w[2,0,3] + w[2,0,4] + w[2,0,5] + w[2,0,6]
   + w[2,1,0] + w[2,1,1] + w[2,1,2] + w[2,1,3] + w[2,1,4] + w[2,1,5]
   + w[2,1,6] + w[2,2,0] + w[2,2,1] + w[2,2,2] + w[2,2,3] + w[2,2,4]
   + w[2,2,5] + w[2,2,6] + w[2,3,0] + w[2,3,1] + w[2,3,2] + w[2,3,3]
   + w[2,3,4] + w[2,3,5] + w[2,3,6] + w[2,4,0] + w[2,4,1] + w[2,4,2]
   + w[2,4,3] + w[2,4,4] + w[2,4,5] + w[2,4,6] + w[2,5,0] + w[2,5,1]
   + w[2,5,2] + w[2,5,3] + w[2,5,4] + w[2,5,5] + w[2,5,6] + w[2,6,0]
   + w[2,6,1] + w[2,6,2] + w[2,6,3] + w[2,6,4] + w[2,6,5] + w[2,6,6]
   + w[2,7,0] + w[2,7,1] + w[2,7,2] + w[2,7,3] + w[2,7,4] + w[2,7,5]
   + w[2,7,6] + w[2,8,0] + w[2,8,1] + w[2,8,2] + w[2,8,3] + w[2,8,4]
   + w[2,8,5] + w[2,8,6] + w[3,0,0] + w[3,0,1] + w[3,0,2] + w[3,0,3]
   + w[3,0,4] + w[3,0,5] + w[3,0,6] + w[3,1,0] + w[3,1,1] + w[3,1,2]
   + w[3,1,3] + w[3,1,4] + w[3,1,5] + w[3,1,6] + w[3,2,0] + w[3,2,1]
   + w[3,2,2] + w[3,2,3] + w[3,2,4] + w[3,2,5] + w[3,2,6] + w[3,3,0]
   + w[3,3,1] + w[3,3,2] + w[3,3,3] + w[3,3,4] + w[3,3,5] + w[3,3,6]
   + w[3,4,0] + w[3,4,1] + w[3,4,2] + w[3,4,3] + w[3,4,4] + w[3,4,5]
   + w[3,4,6] + w[3,5,0] + w[3,5,1] + w[3,5,2] + w[3,5,3] + w[3,5,4]
   + w[3,5,5] + w[3,5,6] + w[3,6,0] + w[3,6,1] + w[3,6,2] + w[3,6,3]
   + w[3,6,4] + w[3,6,5] + w[3,6,6] + w[3,7,0] + w[3,7,1] + w[3,7,2]
   + w[3,7,3] + w[3,7,4] + w[3,7,5] + w[3,7,6] + w[3,8,0] + w[3,8,1]
   + w[3,8,2] + w[3,8,3] + w[3,8,4] + w[3,8,5] + w[3,8,6] + w[4,0,0]
   + w[4,0,1] + w[4,0,2] + w[4,0,3] + w[4,0,4] + w[4,0,5] + w[4,0,6]
   + w[4,1,0] + w[4,1,1] + w[4,1,2] + w[4,1,3] + w[4,1,4] + w[4,1,5]
   + w[4,1,6] + w[4,2,0] + w[4,2,1] + w[4,2,2] + w[4,2,3] + w[4,2,4]
   + w[4,2,5] + w[4,2,6] + w[4,3,0] + w[4,3,1] + w[4,3,2] + w[4,3,3]
   + w[4,3,4] + w[4,3,5] + w[4,3,6] + w[4,4,0] + w[4,4,1] + w[4,4,2]
   + w[4,4,3] + w[4,4,4] + w[4,4,5] + w[4,4,6] + w[4,5,0] + w[4,5,1]
   + w[4,5,2] + w[4,5,3] + w[4,5,4] + w[4,5,5] + w[4,5,6] + w[4,6,0]
   + w[4,6,1] + w[4,6,2] + w[4,6,3] + w[4,6,4] + w[4,6,5] + w[4,6,6]
   + w[4,7,0] + w[4,7,1] + w[4,7,2] + w[4,7,3] + w[4,7,4] + w[4,7,5]
   + w[4,7,6] + w[4,8,0] + w[4,8,1] + w[4,8,2] + w[4,8,3] + w[4,8,4]
   + w[4,8,5] + w[4,8,6] + w[5,0,0] + w[5,0,1] + w[5,0,2] + w[5,0,3]
   + w[5,0,4] + w[5,0,5] + w[5,0,6] + w[5,1,0] + w[5,1,1] + w[5,1,2]
   + w[5,1,3] + w[5,1,4] + w[5,1,5] + w[5,1,6] + w[5,2,0] + w[5,2,1]
   + w[5,2,2] + w[5,2,3] + w[5,2,4] + w[5,2,5] + w[5,2,6] + w[5,3,0]
   + w[5,3,1] + w[5,3,2] + w[5,3,3] + w[5,3,4] + w[5,3,5] + w[5,3,6]
   + w[5,4,0] + w[5,4,1] + w[5,4,2] + w[5,4,3] + w[5,4,4] + w[5,4,5]
   + w[5,4,6] + w[5,5,0] + w[5,5,1] + w[5,5,2] + w[5,5,3] + w[5,5,4]
   + w[5,5,5] + w[5,5,6] + w[5,6,0] + w[5,6,1] + w[5,6,2] + w[5,6,3]
   + w[5,6,4] + w[5,6,5] + w[5,6,6] + w[5,7,0] + w[5,7,1] + w[5,7,2]
   + w[5,7,3] + w[5,7,4] + w[5,7,5] + w[5,7,6] + w[5,8,0] + w[5,8,1]
   + w[5,8,2] + w[5,8,3] + w[5,8,4] + w[5,8,5] + w[5,8,6] + w[6,0,0]
   + w[6,0,1] + w[6,0,2] + w[6,0,3] + w[6,0,4] + w[6,0,5] + w[6,0,6]
   + w[6,1,0] + w[6,1,1] + w[6,1,2] + w[6,1,3] + w[6,1,4] + w[6,1,5]
   + w[6,1,6] + w[6,2,0] + w[6,2,1] + w[6,2,2] + w[6,2,3] + w[6,2,4]
   + w[6,2,5] + w[6,2,6] + w[6,3,0] + w[6,3,1] + w[6,3,2] + w[6,3,3]
   + w[6,3,4] + w[6,3,5] + w[6,3,6] + w[6,4,0] + w[6,4,1] + w[6,4,2]
   + w[6,4,3] + w[6,4,4] + w[6,4,5] + w[6,4,6] + w[6,5,0] + w[6,5,1]
   + w[6,5,2] + w[6,5,3] + w[6,5,4] + w[6,5,5] + w[6,5,6] + w[6,6,0]
   + w[6,6,1] + w[6,6,2] + w[6,6,3] + w[6,6,4] + w[6,6,5] + w[6,6,6]
   + w[6,7,0] + w[6,7,1] + w[6,7,2] + w[6,7,3] + w[6,7,4] + w[6,7,5]
   + w[6,7,6] + w[6,8,0] + w[6,8,1] + w[6,8,2] + w[6,8,3] + w[6,8,4]
   + w[6,8,5] + w[6,8,6]
Subject To
 c1_5_0: r[5,0] = 1
 c1_5_1: r[5,1] = 1
 c1_5_2: r[5,2] = 1
 c1_5_3: r[5,3] = 0
 c1_5_4: r[5,4] = 1
 c1_5_5: r[5,5] = 1
 c1_5_6: r[5,6] = 0
 c2_5_0: w[5,8,0] = 0
 c2_5_1: w[5,8,1] = 0
 c2_5_2: w[5,8,2] = 0
 c2_5_3: w[5,8,3] = 1
 c2_5_4: w[5,8,4] = 0
 c2_5_5: w[5,8,5] = 0
 c2_5_6: w[5,8,6] = 1
 c3_5_0_0: w[5,0,0] = 0
 c3_5_0_1: w[5,0,1] = 0
 c3_5_0_2: w[5,0,2] = 0
 c3_5_0_3: w[5,0,3] = 0
 c3_5_0_4: w[5,0,4] = 0
 c3_5_0_5: w[5,0,5] = 0
 c3_5_0_6: w[5,0,6] = 0
 c3_5_1_0: w[5,1,0] = 0
 c3_5_1_1: w[5,1,1] = 0
 c3_5_1_2: w[5,1,2] = 0
 c3_5_1_3: w[5,1,3] = 0
 c3_5_1_4: w[5,1,4] = 0
 c3_5_1_5: w[5,1,5] = 0
 c3_5_1_6: w[5,1,6] = 0
 c3_5_2_0: w[5,2,0] = 0
 c3_5_2_1: w[5,2,1] = 0
 c3_5_2_2: w[5,2,2] = 0
 c3_5_2_3: w[5,2,3] = 0
 c3_5_2_4: w[5,2,4] = 0
 c3_5_2_5: w[5,2,5] = 0
 c3_5_2_6: w[5,2,6] = 0
 c3_5_3_0: w[5,3,0] = 0
 c3_5_3_1: w[5,3,1] = 0
 c3_5_3_2: w[5,3,2] = 0
 c3_5_3_3: w[5,3,3] = 0
 c3_5_3_4: w[5,3,4] = 0
 c3_5_3_5: w[5,3,5] = 0
 c3_5_3_6: w[5,3,6] = 0
 c3_5_4_0: w[5,4,0] = 0
 c3_5_4_1: w[5,4,1] = 0
 c3_5_4_2: w[5,4,2] = 0
 c3_5_4_3: w[5,4,3] = 0
 c3_5_4_4: w[5,4,4] = 0
 c3_5_4_5: w[5,4,5] = 0
 c3_5_4_6: w[5,4,6] = 0
 c3_5_5_0: w[5,5,0] = 0
 c3_5_5_1: w[5,5,1] = 0
 c3_5_5_2: w[5,5,2] = 0
 c3_5_5_3: w[5,5,3] = 0
 c3_5_5_4: w[5,5,4] = 0
 c3_5_5_5: w[5,5,5] = 0
 c3_5_5_6: w[5,5,6] = 0
 c3_5_6_0: w[5,6,0] = 0
 c3_5_6_1: w[5,6,1] = 0
 c3_5_6_2: w[5,6,2] = 0
 c3_5_6_3: w[5,6,3] = 0
 c3_5_6_4: w[5,6,4] = 0
 c3_5_6_5: w[5,6,5] = 0
 c3_5_6_6: w[5,6,6] = 0
 c3_5_7_0: w[5,7,0] = 0
 c3_5_7_1: w[5,7,1] = 0
 c3_5_7_2: w[5,7,2] = 0
 c3_5_7_3: w[5,7,3] = 0
 c3_5_7_4: w[5,7,4] = 0
 c3_5_7_5: w[5,7,5] = 0
 c3_5_7_6: w[5,7,6] = 0
 c4_6_0: r[6,0] = 1
 c4_6_1: r[6,1] = 1
 c4_6_2: r[6,2] = 1
 c4_6_3: r[6,3] = 1
 c4_6_4: r[6,4] = 1
 c4_6_5: r[6,5] = 1
 c4_6_6: r[6,6] = 1
 c5_6_0_0: w[6,0,0] = 0
 c5_6_0_1: w[6,0,1] = 0
 c5_6_0_2: w[6,0,2] = 0
 c5_6_0_3: w[6,0,3] = 0
 c5_6_0_4: w[6,0,4] = 0
 c5_6_0_5: w[6,0,5] = 0
 c5_6_0_6: w[6,0,6] = 0
 c5_6_1_0: w[6,1,0] = 0
 c5_6_1_1: w[6,1,1] = 0
 c5_6_1_2: w[6,1,2] = 0
 c5_6_1_3: w[6,1,3] = 0
 c5_6_1_4: w[6,1,4] = 0
 c5_6_1_5: w[6,1,5] = 0
 c5_6_1_6: w[6,1,6] = 0
 c5_6_2_0: w[6,2,0] = 0
 c5_6_2_1: w[6,2,1] = 0
 c5_6_2_2: w[6,2,2] = 0
 c5_6_2_3: w[6,2,3] = 0
 c5_6_2_4: w[6,2,4] = 0
 c5_6_2_5: w[6,2,5] = 0
 c5_6_2_6: w[6,2,6] = 0
 c5_6_3_0: w[6,3,0] = 0
 c5_6_3_1: w[6,3,1] = 0
 c5_6_3_2: w[6,3,2] = 0
 c5_6_3_3: w[6,3,3] = 0
 c5_6_3_4: w[6,3,4] = 0
 c5_6_3_5: w[6,3,5] = 0
 c5_6_3_6: w[6,3,6] = 0
 c5_6_4_0: w[6,4,0] = 0
 c5_6_4_1: w[6,4,1] = 0
 c5_6_4_2: w[6,4,2] = 0
 c5_6_4_3: w[6,4,3] = 0
 c5_6_4_4: w[6,4,4] = 0
 c5_6_4_5: w[6,4,5] = 0
 c5_6_4_6: w[6,4,6] = 0
 c5_6_5_0: w[6,5,0] = 0
 c5_6_5_1: w[6,5,1] = 0
 c5_6_5_2: w[6,5,2] = 0
 c5_6_5_3: w[6,5,3] = 0
 c5_6_5_4: w[6,5,4] = 0
 c5_6_5_5: w[6,5,5] = 0
 c5_6_5_6: w[6,5,6] = 0
 c5_6_6_0: w[6,6,0] = 0
 c5_6_6_1: w[6,6,1] = 0
 c5_6_6_2: w[6,6,2] = 0
 c5_6_6_3: w[6,6,3] = 0
 c5_6_6_4: w[6,6,4] = 0
 c5_6_6_5: w[6,6,5] = 0
 c5_6_6_6: w[6,6,6] = 0
 c5_6_7_0: w[6,7,0] = 0
 c5_6_7_1: w[6,7,1] = 0
 c5_6_7_2: w[6,7,2] = 0
 c5_6_7_3: w[6,7,3] = 0
 c5_6_7_4: w[6,7,4] = 0
 c5_6_7_5: w[6,7,5] = 0
 c5_6_7_6: w[6,7,6] = 0
 c5_6_8_0: w[6,8,0] = 0
 c5_6_8_1: w[6,8,1] = 0
 c5_6_8_2: w[6,8,2] = 0
 c5_6_8_3: w[6,8,3] = 0
 c5_6_8_4: w[6,8,4] = 0
 c5_6_8_5: w[6,8,5] = 0
 c5_6_8_6: w[6,8,6] = 0
 c6_0_0: w[0,0,0] + w[0,0,1] + w[0,0,2] + w[0,0,3] + w[0,0,4] + w[0,0,5]
   + w[0,0,6] = 1
 c6_0_1: w[0,1,0] + w[0,1,1] + w[0,1,2] + w[0,1,3] + w[0,1,4] + w[0,1,5]
   + w[0,1,6] = 1
 c6_0_3: w[0,3,0] + w[0,3,1] + w[0,3,2] + w[0,3,3] + w[0,3,4] + w[0,3,5]
   + w[0,3,6] = 1
 c6_0_4: w[0,4,0] + w[0,4,1] + w[0,4,2] + w[0,4,3] + w[0,4,4] + w[0,4,5]
   + w[0,4,6] = 1
 c6_0_6: w[0,6,0] + w[0,6,1] + w[0,6,2] + w[0,6,3] + w[0,6,4] + w[0,6,5]
   + w[0,6,6] = 1
 c6_0_7: w[0,7,0] + w[0,7,1] + w[0,7,2] + w[0,7,3] + w[0,7,4] + w[0,7,5]
   + w[0,7,6] = 1
 c6_1_0: w[1,0,0] + w[1,0,1] + w[1,0,2] + w[1,0,3] + w[1,0,4] + w[1,0,5]
   + w[1,0,6] = 1
 c6_1_1: w[1,1,0] + w[1,1,1] + w[1,1,2] + w[1,1,3] + w[1,1,4] + w[1,1,5]
   + w[1,1,6] = 1
 c6_1_3: w[1,3,0] + w[1,3,1] + w[1,3,2] + w[1,3,3] + w[1,3,4] + w[1,3,5]
   + w[1,3,6] = 1
 c6_1_4: w[1,4,0] + w[1,4,1] + w[1,4,2] + w[1,4,3] + w[1,4,4] + w[1,4,5]
   + w[1,4,6] = 1
 c6_1_6: w[1,6,0] + w[1,6,1] + w[1,6,2] + w[1,6,3] + w[1,6,4] + w[1,6,5]
   + w[1,6,6] = 1
 c6_1_7: w[1,7,0] + w[1,7,1] + w[1,7,2] + w[1,7,3] + w[1,7,4] + w[1,7,5]
   + w[1,7,6] = 1
 c6_2_0: w[2,0,0] + w[2,0,1] + w[2,0,2] + w[2,0,3] + w[2,0,4] + w[2,0,5]
   + w[2,0,6] = 1
 c6_2_1: w[2,1,0] + w[2,1,1] + w[2,1,2] + w[2,1,3] + w[2,1,4] + w[2,1,5]
   + w[2,1,6] = 1
 c6_2_3: w[2,3,0] + w[2,3,1] + w[2,3,2] + w[2,3,3] + w[2,3,4] + w[2,3,5]
   + w[2,3,6] = 1
 c6_2_4: w[2,4,0] + w[2,4,1] + w[2,4,2] + w[2,4,3] + w[2,4,4] + w[2,4,5]
   + w[2,4,6] = 1
 c6_2_6: w[2,6,0] + w[2,6,1] + w[2,6,2] + w[2,6,3] + w[2,6,4] + w[2,6,5]
   + w[2,6,6] = 1
 c6_2_7: w[2,7,0] + w[2,7,1] + w[2,7,2] + w[2,7,3] + w[2,7,4] + w[2,7,5]
   + w[2,7,6] = 1
 c6_3_0: w[3,0,0] + w[3,0,1] + w[3,0,2] + w[3,0,3] + w[3,0,4] + w[3,0,5]
   + w[3,0,6] = 1
 c6_3_1: w[3,1,0] + w[3,1,1] + w[3,1,2] + w[3,1,3] + w[3,1,4] + w[3,1,5]
   + w[3,1,6] = 1
 c6_3_3: w[3,3,0] + w[3,3,1] + w[3,3,2] + w[3,3,3] + w[3,3,4] + w[3,3,5]
   + w[3,3,6] = 1
 c6_3_4: w[3,4,0] + w[3,4,1] + w[3,4,2] + w[3,4,3] + w[3,4,4] + w[3,4,5]
   + w[3,4,6] = 1
 c6_3_6: w[3,6,0] + w[3,6,1] + w[3,6,2] + w[3,6,3] + w[3,6,4] + w[3,6,5]
   + w[3,6,6] = 1
 c6_3_7: w[3,7,0] + w[3,7,1] + w[3,7,2] + w[3,7,3] + w[3,7,4] + w[3,7,5]
   + w[3,7,6] = 1
 c6_4_0: w[4,0,0] + w[4,0,1] + w[4,0,2] + w[4,0,3] + w[4,0,4] + w[4,0,5]
   + w[4,0,6] = 1
 c6_4_1: w[4,1,0] + w[4,1,1] + w[4,1,2] + w[4,1,3] + w[4,1,4] + w[4,1,5]
   + w[4,1,6] = 1
 c6_4_3: w[4,3,0] + w[4,3,1] + w[4,3,2] + w[4,3,3] + w[4,3,4] + w[4,3,5]
   + w[4,3,6] = 1
 c6_4_4: w[4,4,0] + w[4,4,1] + w[4,4,2] + w[4,4,3] + w[4,4,4] + w[4,4,5]
   + w[4,4,6] = 1
 c6_4_6: w[4,6,0] + w[4,6,1] + w[4,6,2] + w[4,6,3] + w[4,6,4] + w[4,6,5]
   + w[4,6,6] = 1
 c6_4_7: w[4,7,0] + w[4,7,1] + w[4,7,2] + w[4,7,3] + w[4,7,4] + w[4,7,5]
   + w[4,7,6] = 1
 c7_0_8: w[0,8,0] + w[0,8,1] + w[0,8,2] + w[0,8,3] + w[0,8,4] + w[0,8,5]
   + w[0,8,6] = 0
 c7_1_8: w[1,8,0] + w[1,8,1] + w[1,8,2] + w[1,8,3] + w[1,8,4] + w[1,8,5]
   + w[1,8,6] = 0
 c7_2_8: w[2,8,0] + w[2,8,1] + w[2,8,2] + w[2,8,3] + w[2,8,4] + w[2,8,5]
   + w[2,8,6] = 0
 c7_3_8: w[3,8,0] + w[3,8,1] + w[3,8,2] + w[3,8,3] + w[3,8,4] + w[3,8,5]
   + w[3,8,6] = 0
 c7_4_8: w[4,8,0] + w[4,8,1] + w[4,8,2] + w[4,8,3] + w[4,8,4] + w[4,8,5]
   + w[4,8,6] = 0
 c8_0: r[0,0] + r[0,1] + r[0,2] + r[0,3] + r[0,4] + r[0,5] + r[0,6] = 1
 c8_1: r[1,0] + r[1,1] + r[1,2] + r[1,3] + r[1,4] + r[1,5] + r[1,6] = 1
 c8_2: r[2,0] + r[2,1] + r[2,2] + r[2,3] + r[2,4] + r[2,5] + r[2,6] = 1
 c8_3: r[3,0] + r[3,1] + r[3,2] + r[3,3] + r[3,4] + r[3,5] + r[3,6] = 1
 c8_4: r[4,0] + r[4,1] + r[4,2] + r[4,3] + r[4,4] + r[4,5] + r[4,6] = 1
 c9_0_0: w[0,0,0] + w[0,1,0] + w[0,3,0] + w[0,4,0] + w[0,6,0] + w[0,7,0]
   + r[0,0] = 1
 c9_0_1: w[1,0,0] + w[1,1,0] + w[1,3,0] + w[1,4,0] + w[1,6,0] + w[1,7,0]
   + r[1,0] = 1
 c9_0_2: w[2,0,0] + w[2,1,0] + w[2,3,0] + w[2,4,0] + w[2,6,0] + w[2,7,0]
   + r[2,0] = 1
 c9_0_3: w[3,0,0] + w[3,1,0] + w[3,3,0] + w[3,4,0] + w[3,6,0] + w[3,7,0]
   + r[3,0] = 1
 c9_0_4: w[4,0,0] + w[4,1,0] + w[4,3,0] + w[4,4,0] + w[4,6,0] + w[4,7,0]
   + r[4,0] = 1
 c9_1_0: w[0,0,1] + w[0,1,1] + w[0,3,1] + w[0,4,1] + w[0,6,1] + w[0,7,1]
   + r[0,1] = 1
 c9_1_1: w[1,0,1] + w[1,1,1] + w[1,3,1] + w[1,4,1] + w[1,6,1] + w[1,7,1]
   + r[1,1] = 1
 c9_1_2: w[2,0,1] + w[2,1,1] + w[2,3,1] + w[2,4,1] + w[2,6,1] + w[2,7,1]
   + r[2,1] = 1
 c9_1_3: w[3,0,1] + w[3,1,1] + w[3,3,1] + w[3,4,1] + w[3,6,1] + w[3,7,1]
   + r[3,1] = 1
 c9_1_4: w[4,0,1] + w[4,1,1] + w[4,3,1] + w[4,4,1] + w[4,6,1] + w[4,7,1]
   + r[4,1] = 1
 c9_2_0: w[0,0,2] + w[0,1,2] + w[0,3,2] + w[0,4,2] + w[0,6,2] + w[0,7,2]
   + r[0,2] = 1
 c9_2_1: w[1,0,2] + w[1,1,2] + w[1,3,2] + w[1,4,2] + w[1,6,2] + w[1,7,2]
   + r[1,2] = 1
 c9_2_2: w[2,0,2] + w[2,1,2] + w[2,3,2] + w[2,4,2] + w[2,6,2] + w[2,7,2]
   + r[2,2] = 1
 c9_2_3: w[3,0,2] + w[3,1,2] + w[3,3,2] + w[3,4,2] + w[3,6,2] + w[3,7,2]
   + r[3,2] = 1
 c9_2_4: w[4,0,2] + w[4,1,2] + w[4,3,2] + w[4,4,2] + w[4,6,2] + w[4,7,2]
   + r[4,2] = 1
 c9_3_0: w[0,0,3] + w[0,1,3] + w[0,3,3] + w[0,4,3] + w[0,6,3] + w[0,7,3]
   + r[0,3] = 1
 c9_3_1: w[1,0,3] + w[1,1,3] + w[1,3,3] + w[1,4,3] + w[1,6,3] + w[1,7,3]
   + r[1,3] = 1
 c9_3_2: w[2,0,3] + w[2,1,3] + w[2,3,3] + w[2,4,3] + w[2,6,3] + w[2,7,3]
   + r[2,3] = 1
 c9_3_3: w[3,0,3] + w[3,1,3] + w[3,3,3] + w[3,4,3] + w[3,6,3] + w[3,7,3]
   + r[3,3] = 1
 c9_3_4: w[4,0,3] + w[4,1,3] + w[4,3,3] + w[4,4,3] + w[4,6,3] + w[4,7,3]
   + r[4,3] = 1
 c9_4_0: w[0,0,4] + w[0,1,4] + w[0,3,4] + w[0,4,4] + w[0,6,4] + w[0,7,4]
   + r[0,4] = 1
 c9_4_1: w[1,0,4] + w[1,1,4] + w[1,3,4] + w[1,4,4] + w[1,6,4] + w[1,7,4]
   + r[1,4] = 1
 c9_4_2: w[2,0,4] + w[2,1,4] + w[2,3,4] + w[2,4,4] + w[2,6,4] + w[2,7,4]
   + r[2,4] = 1
 c9_4_3: w[3,0,4] + w[3,1,4] + w[3,3,4] + w[3,4,4] + w[3,6,4] + w[3,7,4]
   + r[3,4] = 1
 c9_4_4: w[4,0,4] + w[4,1,4] + w[4,3,4] + w[4,4,4] + w[4,6,4] + w[4,7,4]
   + r[4,4] = 1
 c9_5_0: w[0,0,5] + w[0,1,5] + w[0,3,5] + w[0,4,5] + w[0,6,5] + w[0,7,5]
   + r[0,5] = 1
 c9_5_1: w[1,0,5] + w[1,1,5] + w[1,3,5] + w[1,4,5] + w[1,6,5] + w[1,7,5]
   + r[1,5] = 1
 c9_5_2: w[2,0,5] + w[2,1,5] + w[2,3,5] + w[2,4,5] + w[2,6,5] + w[2,7,5]
   + r[2,5] = 1
 c9_5_3: w[3,0,5] + w[3,1,5] + w[3,3,5] + w[3,4,5] + w[3,6,5] + w[3,7,5]
   + r[3,5] = 1
 c9_5_4: w[4,0,5] + w[4,1,5] + w[4,3,5] + w[4,4,5] + w[4,6,5] + w[4,7,5]
   + r[4,5] = 1
 c9_6_0: w[0,0,6] + w[0,1,6] + w[0,3,6] + w[0,4,6] + w[0,6,6] + w[0,7,6]
   + r[0,6] = 1
 c9_6_1: w[1,0,6] + w[1,1,6] + w[1,3,6] + w[1,4,6] + w[1,6,6] + w[1,7,6]
   + r[1,6] = 1
 c9_6_2: w[2,0,6] + w[2,1,6] + w[2,3,6] + w[2,4,6] + w[2,6,6] + w[2,7,6]
   + r[2,6] = 1
 c9_6_3: w[3,0,6] + w[3,1,6] + w[3,3,6] + w[3,4,6] + w[3,6,6] + w[3,7,6]
   + r[3,6] = 1
 c9_6_4: w[4,0,6] + w[4,1,6] + w[4,3,6] + w[4,4,6] + w[4,6,6] + w[4,7,6]
   + r[4,6] = 1
 c10_0_0: w[1,6,0] = 1
 c10_0_1: w[1,6,1] = 0
 c10_0_2: w[1,6,2] = 0
 c10_0_3: w[1,6,3] = 0
 c10_0_4: w[1,6,4] = 0
 c10_0_5: w[1,6,5] = 0
 c10_0_6: w[1,6,6] = 0
 c10_1_0: w[2,6,0] = 0
 c10_1_1: w[2,6,1] = 0
 c10_1_2: w[2,6,2] = 1
 c10_1_3: w[2,6,3] = 0
 c10_1_4: w[2,6,4] = 0
 c10_1_5: w[2,6,5] = 0
 c10_1_6: w[2,6,6] = 0
 c10_2_0: w[3,6,0] = 0
 c10_2_1: w[3,6,1] = 0
 c10_2_2: w[3,6,2] = 0
 c10_2_3: w[3,6,3] = 0
 c10_2_4: w[3,6,4] = 0
 c10_2_5: w[3,6,5] = 1
 c10_2_6: w[3,6,6] = 0
 c10_3_0: w[4,6,0] = 0
 c10_3_1: w[4,6,1] = 0
 c10_3_2: w[4,6,2] = 1
 c10_3_3: w[4,6,3] = 0
 c10_3_4: w[4,6,4] = 0
 c10_3_5: w[4,6,5] = 0
 c10_3_6: w[4,6,6] = 0
 c11_0_6: w[0,7,6] + r[0,6] = 1
 c11_1_6: w[1,7,6] + r[1,6] = 1
 c11_2_6: w[2,7,6] + r[2,6] = 1
 c11_3_6: w[3,7,6] + r[3,6] = 1
 c11_4_6: w[4,7,6] + r[4,6] = 1
 c12_0_1: r[0,1] = 1
 c12_1_1: r[1,1] = 1
 c12_2_1: r[2,1] = 1
 c12_3_1: r[3,1] = 1
 c12_4_1: r[4,1] = 1
 c13: w[0,6,4] = 1
 c14_0: w[0,0,0] + w[0,6,0] + r[0,0] = 1
 c15_0: w[0,1,1] + w[0,6,1] + r[0,1] = 1
 c16_0: w[0,3,3] + w[0,6,3] + r[0,3] = 1
 c17_0: w[0,4,4] + w[0,6,4] + r[0,4] = 1
 c14_1: w[1,0,0] + w[1,6,0] + r[1,0] = 1
 c15_1: w[1,1,1] + w[1,6,1] + r[1,1] = 1
 c16_1: w[1,3,3] + w[1,6,3] + r[1,3] = 1
 c17_1: w[1,4,4] + w[1,6,4] + r[1,4] = 1
 c14_2: w[2,0,0] + w[2,6,0] + r[2,0] = 1
 c15_2: w[2,1,1] + w[2,6,1] + r[2,1] = 1
 c16_2: w[2,3,3] + w[2,6,3] + r[2,3] = 1
 c17_2: w[2,4,4] + w[2,6,4] + r[2,4] = 1
 c14_3: w[3,0,0] + w[3,6,0] + r[3,0] = 1
 c15_3: w[3,1,1] + w[3,6,1] + r[3,1] = 1
 c16_3: w[3,3,3] + w[3,6,3] + r[3,3] = 1
 c17_3: w[3,4,4] + w[3,6,4] + r[3,4] = 1
 c14_4: w[4,0,0] + w[4,6,0] + r[4,0] = 1
 c15_4: w[4,1,1] + w[4,6,1] + r[4,1] = 1
 c16_4: w[4,3,3] + w[4,6,3] + r[4,3] = 1
 c17_4: w[4,4,4] + w[4,6,4] + r[4,4] = 1
 c18: - w[0,4,5] + w[0,6,4] = 0
 c19: - w[1,0,5] + w[1,6,0] = 0
 c20: - w[2,1,5] + w[2,6,2] = 0
 c21: - w[4,1,5] + w[4,6,2] = 0
Bounds
Binaries
 w[0,0,0] w[0,0,1] w[0,0,2] w[0,0,3] w[0,0,4] w[0,0,5] w[0,0,6] w[0,1,0]
 w[0,1,1] w[0,1,2] w[0,1,3] w[0,1,4] w[0,1,5] w[0,1,6] w[0,2,0] w[0,2,1]
 w[0,2,2] w[0,2,3] w[0,2,4] w[0,2,5] w[0,2,6] w[0,3,0] w[0,3,1] w[0,3,2]
 w[0,3,3] w[0,3,4] w[0,3,5] w[0,3,6] w[0,4,0] w[0,4,1] w[0,4,2] w[0,4,3]
 w[0,4,4] w[0,4,5] w[0,4,6] w[0,5,0] w[0,5,1] w[0,5,2] w[0,5,3] w[0,5,4]
 w[0,5,5] w[0,5,6] w[0,6,0] w[0,6,1] w[0,6,2] w[0,6,3] w[0,6,4] w[0,6,5]
 w[0,6,6] w[0,7,0] w[0,7,1] w[0,7,2] w[0,7,3] w[0,7,4] w[0,7,5] w[0,7,6]
 w[0,8,0] w[0,8,1] w[0,8,2] w[0,8,3] w[0,8,4] w[0,8,5] w[0,8,6] w[1,0,0]
 w[1,0,1] w[1,0,2] w[1,0,3] w[1,0,4] w[1,0,5] w[1,0,6] w[1,1,0] w[1,1,1]
 w[1,1,2] w[1,1,3] w[1,1,4] w[1,1,5] w[1,1,6] w[1,2,0] w[1,2,1] w[1,2,2]
 w[1,2,3] w[1,2,4] w[1,2,5] w[1,2,6] w[1,3,0] w[1,3,1] w[1,3,2] w[1,3,3]
 w[1,3,4] w[1,3,5] w[1,3,6] w[1,4,0] w[1,4,1] w[1,4,2] w[1,4,3] w[1,4,4]
 w[1,4,5] w[1,4,6] w[1,5,0] w[1,5,1] w[1,5,2] w[1,5,3] w[1,5,4] w[1,5,5]
 w[1,5,6] w[1,6,0] w[1,6,1] w[1,6,2] w[1,6,3] w[1,6,4] w[1,6,5] w[1,6,6]
 w[1,7,0] w[1,7,1] w[1,7,2] w[1,7,3] w[1,7,4] w[1,7,5] w[1,7,6] w[1,8,0]
 w[1,8,1] w[1,8,2] w[1,8,3] w[1,8,4] w[1,8,5] w[1,8,6] w[2,0,0] w[2,0,1]
 w[2,0,2] w[2,0,3] w[2,0,4] w[2,0,5] w[2,0,6] w[2,1,0] w[2,1,1] w[2,1,2]
 w[2,1,3] w[2,1,4] w[2,1,5] w[2,1,6] w[2,2,0] w[2,2,1] w[2,2,2] w[2,2,3]
 w[2,2,4] w[2,2,5] w[2,2,6] w[2,3,0] w[2,3,1] w[2,3,2] w[2,3,3] w[2,3,4]
 w[2,3,5] w[2,3,6] w[2,4,0] w[2,4,1] w[2,4,2] w[2,4,3] w[2,4,4] w[2,4,5]
 w[2,4,6] w[2,5,0] w[2,5,1] w[2,5,2] w[2,5,3] w[2,5,4] w[2,5,5] w[2,5,6]
 w[2,6,0] w[2,6,1] w[2,6,2] w[2,6,3] w[2,6,4] w[2,6,5] w[2,6,6] w[2,7,0]
 w[2,7,1] w[2,7,2] w[2,7,3] w[2,7,4] w[2,7,5] w[2,7,6] w[2,8,0] w[2,8,1]
 w[2,8,2] w[2,8,3] w[2,8,4] w[2,8,5] w[2,8,6] w[3,0,0] w[3,0,1] w[3,0,2]
 w[3,0,3] w[3,0,4] w[3,0,5] w[3,0,6] w[3,1,0] w[3,1,1] w[3,1,2] w[3,1,3]
 w[3,1,4] w[3,1,5] w[3,1,6] w[3,2,0] w[3,2,1] w[3,2,2] w[3,2,3] w[3,2,4]
 w[3,2,5] w[3,2,6] w[3,3,0] w[3,3,1] w[3,3,2] w[3,3,3] w[3,3,4] w[3,3,5]
 w[3,3,6] w[3,4,0] w[3,4,1] w[3,4,2] w[3,4,3] w[3,4,4] w[3,4,5] w[3,4,6]
 w[3,5,0] w[3,5,1] w[3,5,2] w[3,5,3] w[3,5,4] w[3,5,5] w[3,5,6] w[3,6,0]
 w[3,6,1] w[3,6,2] w[3,6,3] w[3,6,4] w[3,6,5] w[3,6,6] w[3,7,0] w[3,7,1]
 w[3,7,2] w[3,7,3] w[3,7,4] w[3,7,5] w[3,7,6] w[3,8,0] w[3,8,1] w[3,8,2]
 w[3,8,3] w[3,8,4] w[3,8,5] w[3,8,6] w[4,0,0] w[4,0,1] w[4,0,2] w[4,0,3]
 w[4,0,4] w[4,0,5] w[4,0,6] w[4,1,0] w[4,1,1] w[4,1,2] w[4,1,3] w[4,1,4]
 w[4,1,5] w[4,1,6] w[4,2,0] w[4,2,1] w[4,2,2] w[4,2,3] w[4,2,4] w[4,2,5]
 w[4,2,6] w[4,3,0] w[4,3,1] w[4,3,2] w[4,3,3] w[4,3,4] w[4,3,5] w[4,3,6]
 w[4,4,0] w[4,4,1] w[4,4,2] w[4,4,3] w[4,4,4] w[4,4,5] w[4,4,6] w[4,5,0]
 w[4,5,1] w[4,5,2] w[4,5,3] w[4,5,4] w[4,5,5] w[4,5,6] w[4,6,0] w[4,6,1]
 w[4,6,2] w[4,6,3] w[4,6,4] w[4,6,5] w[4,6,6] w[4,7,0] w[4,7,1] w[4,7,2]
 w[4,7,3] w[4,7,4] w[4,7,5] w[4,7,6] w[4,8,0] w[4,8,1] w[4,8,2] w[4,8,3]
 w[4,8,4] w[4,8,5] w[4,8,6] w[5,0,0] w[5,0,1] w[5,0,2] w[5,0,3] w[5,0,4]
 w[5,0,5] w[5,0,6] w[5,1,0] w[5,1,1] w[5,1,2] w[5,1,3] w[5,1,4] w[5,1,5]
 w[5,1,6] w[5,2,0] w[5,2,1] w[5,2,2] w[5,2,3] w[5,2,4] w[5,2,5] w[5,2,6]
 w[5,3,0] w[5,3,1] w[5,3,2] w[5,3,3] w[5,3,4] w[5,3,5] w[5,3,6] w[5,4,0]
 w[5,4,1] w[5,4,2] w[5,4,3] w[5,4,4] w[5,4,5] w[5,4,6] w[5,5,0] w[5,5,1]
 w[5,5,2] w[5,5,3] w[5,5,4] w[5,5,5] w[5,5,6] w[5,6,0] w[5,6,1] w[5,6,2]
 w[5,6,3] w[5,6,4] w[5,6,5] w[5,6,6] w[5,7,0] w[5,7,1] w[5,7,2] w[5,7,3]
 w[5,7,4] w[5,7,5] w[5,7,6] w[5,8,0] w[5,8,1] w[5,8,2] w[5,8,3] w[5,8,4]
 w[5,8,5] w[5,8,6] w[6,0,0] w[6,0,1] w[6,0,2] w[6,0,3] w[6,0,4] w[6,0,5]
 w[6,0,6] w[6,1,0] w[6,1,1] w[6,1,2] w[6,1,3] w[6,1,4] w[6,1,5] w[6,1,6]
 w[6,2,0] w[6,2,1] w[6,2,2] w[6,2,3] w[6,2,4] w[6,2,5] w[6,2,6] w[6,3,0]
 w[6,3,1] w[6,3,2] w[6,3,3] w[6,3,4] w[6,3,5] w[6,3,6] w[6,4,0] w[6,4,1]
 w[6,4,2] w[6,4,3] w[6,4,4] w[6,4,5] w[6,4,6] w[6,5,0] w[6,5,1] w[6,5,2]
 w[6,5,3] w[6,5,4] w[6,5,5] w[6,5,6] w[6,6,0] w[6,6,1] w[6,6,2] w[6,6,3]
 w[6,6,4] w[6,6,5] w[6,6,6] w[6,7,0] w[6,7,1] w[6,7,2] w[6,7,3] w[6,7,4]
 w[6,7,5] w[6,7,6] w[6,8,0] w[6,8,1] w[6,8,2] w[6,8,3] w[6,8,4] w[6,8,5]
 w[6,8,6] r[0,0] r[0,1] r[0,2] r[0,3] r[0,4] r[0,5] r[0,6] r[1,0] r[1,1]
 r[1,2] r[1,3] r[1,4] r[1,5] r[1,6] r[2,0] r[2,1] r[2,2] r[2,3] r[2,4]
 r[2,5] r[2,6] r[3,0] r[3,1] r[3,2] r[3,3] r[3,4] r[3,5] r[3,6] r[4,0]
 r[4,1] r[4,2] r[4,3] r[4,4] r[4,5] r[4,6] r[5,0] r[5,1] r[5,2] r[5,3]
 r[5,4] r[5,5] r[5,6] r[6,0] r[6,1] r[6,2] r[6,3] r[6,4] r[6,5] r[6,6]
End
